Min
	x_0_7 + x_1_7 + x_2_7 + x_3_7 + x_4_7 + x_5_7 + x_6_7 + x_7_7 + x_8_7 + x_9_7

Subject to
	x_0_1 + x_0_2 + x_0_3 + x_0_4 + x_0_5 + x_0_6 + x_0_7 = 1
	x_1_1 + x_1_2 + x_1_3 + x_1_4 + x_1_5 + x_1_6 + x_1_7 = 1
	x_2_1 + x_2_2 + x_2_3 + x_2_4 + x_2_5 + x_2_6 + x_2_7 = 1
	x_3_1 + x_3_2 + x_3_3 + x_3_4 + x_3_5 + x_3_6 + x_3_7 = 1
	x_4_1 + x_4_2 + x_4_3 + x_4_4 + x_4_5 + x_4_6 + x_4_7 = 1
	x_5_1 + x_5_2 + x_5_3 + x_5_4 + x_5_5 + x_5_6 + x_5_7 = 1
	x_6_1 + x_6_2 + x_6_3 + x_6_4 + x_6_5 + x_6_6 + x_6_7 = 1
	x_7_1 + x_7_2 + x_7_3 + x_7_4 + x_7_5 + x_7_6 + x_7_7 = 1
	x_8_1 + x_8_2 + x_8_3 + x_8_4 + x_8_5 + x_8_6 + x_8_7 = 1
	x_9_1 + x_9_2 + x_9_3 + x_9_4 + x_9_5 + x_9_6 + x_9_7 = 1
	1 x_0_1 + 2 x_1_1 + 3 x_2_1 + 4 x_3_1 + 5 x_4_1 + 5 x_5_1 + 4 x_6_1 + 3 x_7_1 + 2 x_8_1 + 1 x_9_1 <= 8
	1 x_0_2 + 2 x_1_2 + 3 x_2_2 + 4 x_3_2 + 5 x_4_2 + 5 x_5_2 + 4 x_6_2 + 3 x_7_2 + 2 x_8_2 + 1 x_9_2 <= 8
	1 x_0_3 + 2 x_1_3 + 3 x_2_3 + 4 x_3_3 + 5 x_4_3 + 5 x_5_3 + 4 x_6_3 + 3 x_7_3 + 2 x_8_3 + 1 x_9_3 <= 8
	1001 x_0_1 <= 1003
	2 x_0_1 + 1002 x_1_1 <= 1004
	3 x_0_1 + 3 x_1_1 + 1003 x_2_1 <= 1005
	4 x_0_1 + 4 x_1_1 + 4 x_2_1 + 1004 x_3_1 <= 1006
	5 x_0_1 + 5 x_1_1 + 5 x_2_1 + 5 x_3_1 + 1005 x_4_1 <= 1007
	5 x_0_1 + 5 x_1_1 + 5 x_2_1 + 5 x_3_1 + 5 x_4_1 + 1005 x_5_1 <= 1008
	4 x_0_1 + 4 x_1_1 + 4 x_2_1 + 4 x_3_1 + 4 x_4_1 + 4 x_5_1 + 1004 x_6_1 <= 1009
	3 x_0_1 + 3 x_1_1 + 3 x_2_1 + 3 x_3_1 + 3 x_4_1 + 3 x_5_1 + 3 x_6_1 + 1003 x_7_1 <= 1010
	2 x_0_1 + 2 x_1_1 + 2 x_2_1 + 2 x_3_1 + 2 x_4_1 + 2 x_5_1 + 2 x_6_1 + 2 x_7_1 + 1002 x_8_1 <= 1011
	1 x_0_1 + 1 x_1_1 + 1 x_2_1 + 1 x_3_1 + 1 x_4_1 + 1 x_5_1 + 1 x_6_1 + 1 x_7_1 + 1 x_8_1 + 1001 x_9_1 <= 1012
	1001 x_0_2 <= 1003
	2 x_0_2 + 1002 x_1_2 <= 1004
	3 x_0_2 + 3 x_1_2 + 1003 x_2_2 <= 1005
	4 x_0_2 + 4 x_1_2 + 4 x_2_2 + 1004 x_3_2 <= 1006
	5 x_0_2 + 5 x_1_2 + 5 x_2_2 + 5 x_3_2 + 1005 x_4_2 <= 1007
	5 x_0_2 + 5 x_1_2 + 5 x_2_2 + 5 x_3_2 + 5 x_4_2 + 1005 x_5_2 <= 1008
	4 x_0_2 + 4 x_1_2 + 4 x_2_2 + 4 x_3_2 + 4 x_4_2 + 4 x_5_2 + 1004 x_6_2 <= 1009
	3 x_0_2 + 3 x_1_2 + 3 x_2_2 + 3 x_3_2 + 3 x_4_2 + 3 x_5_2 + 3 x_6_2 + 1003 x_7_2 <= 1010
	2 x_0_2 + 2 x_1_2 + 2 x_2_2 + 2 x_3_2 + 2 x_4_2 + 2 x_5_2 + 2 x_6_2 + 2 x_7_2 + 1002 x_8_2 <= 1011
	1 x_0_2 + 1 x_1_2 + 1 x_2_2 + 1 x_3_2 + 1 x_4_2 + 1 x_5_2 + 1 x_6_2 + 1 x_7_2 + 1 x_8_2 + 1001 x_9_2 <= 1012
	1001 x_0_3 <= 1003
	2 x_0_3 + 1002 x_1_3 <= 1004
	3 x_0_3 + 3 x_1_3 + 1003 x_2_3 <= 1005
	4 x_0_3 + 4 x_1_3 + 4 x_2_3 + 1004 x_3_3 <= 1006
	5 x_0_3 + 5 x_1_3 + 5 x_2_3 + 5 x_3_3 + 1005 x_4_3 <= 1007
	5 x_0_3 + 5 x_1_3 + 5 x_2_3 + 5 x_3_3 + 5 x_4_3 + 1005 x_5_3 <= 1008
	4 x_0_3 + 4 x_1_3 + 4 x_2_3 + 4 x_3_3 + 4 x_4_3 + 4 x_5_3 + 1004 x_6_3 <= 1009
	3 x_0_3 + 3 x_1_3 + 3 x_2_3 + 3 x_3_3 + 3 x_4_3 + 3 x_5_3 + 3 x_6_3 + 1003 x_7_3 <= 1010
	2 x_0_3 + 2 x_1_3 + 2 x_2_3 + 2 x_3_3 + 2 x_4_3 + 2 x_5_3 + 2 x_6_3 + 2 x_7_3 + 1002 x_8_3 <= 1011
	1 x_0_3 + 1 x_1_3 + 1 x_2_3 + 1 x_3_3 + 1 x_4_3 + 1 x_5_3 + 1 x_6_3 + 1 x_7_3 + 1 x_8_3 + 1001 x_9_3 <= 1012
	1001 x_0_4 <= 993
	2 x_0_4 + 1002 x_1_4 <= 994
	3 x_0_4 + 3 x_1_4 + 1003 x_2_4 <= 995
	4 x_0_4 + 4 x_1_4 + 4 x_2_4 + 1004 x_3_4 <= 996
	5 x_0_4 + 5 x_1_4 + 5 x_2_4 + 5 x_3_4 + 1005 x_4_4 <= 997
	5 x_0_4 + 5 x_1_4 + 5 x_2_4 + 5 x_3_4 + 5 x_4_4 + 1005 x_5_4 <= 998
	4 x_0_4 + 4 x_1_4 + 4 x_2_4 + 4 x_3_4 + 4 x_4_4 + 4 x_5_4 + 1004 x_6_4 <= 999
	3 x_0_4 + 3 x_1_4 + 3 x_2_4 + 3 x_3_4 + 3 x_4_4 + 3 x_5_4 + 3 x_6_4 + 1003 x_7_4 <= 1000
	2 x_0_4 + 2 x_1_4 + 2 x_2_4 + 2 x_3_4 + 2 x_4_4 + 2 x_5_4 + 2 x_6_4 + 2 x_7_4 + 1002 x_8_4 <= 1001
	1 x_0_4 + 1 x_1_4 + 1 x_2_4 + 1 x_3_4 + 1 x_4_4 + 1 x_5_4 + 1 x_6_4 + 1 x_7_4 + 1 x_8_4 + 1001 x_9_4 <= 1002
	1001 x_0_5 <= 993
	2 x_0_5 + 1002 x_1_5 <= 994
	3 x_0_5 + 3 x_1_5 + 1003 x_2_5 <= 995
	4 x_0_5 + 4 x_1_5 + 4 x_2_5 + 1004 x_3_5 <= 996
	5 x_0_5 + 5 x_1_5 + 5 x_2_5 + 5 x_3_5 + 1005 x_4_5 <= 997
	5 x_0_5 + 5 x_1_5 + 5 x_2_5 + 5 x_3_5 + 5 x_4_5 + 1005 x_5_5 <= 998
	4 x_0_5 + 4 x_1_5 + 4 x_2_5 + 4 x_3_5 + 4 x_4_5 + 4 x_5_5 + 1004 x_6_5 <= 999
	3 x_0_5 + 3 x_1_5 + 3 x_2_5 + 3 x_3_5 + 3 x_4_5 + 3 x_5_5 + 3 x_6_5 + 1003 x_7_5 <= 1000
	2 x_0_5 + 2 x_1_5 + 2 x_2_5 + 2 x_3_5 + 2 x_4_5 + 2 x_5_5 + 2 x_6_5 + 2 x_7_5 + 1002 x_8_5 <= 1001
	1 x_0_5 + 1 x_1_5 + 1 x_2_5 + 1 x_3_5 + 1 x_4_5 + 1 x_5_5 + 1 x_6_5 + 1 x_7_5 + 1 x_8_5 + 1001 x_9_5 <= 1002
	1001 x_0_6 <= 993
	2 x_0_6 + 1002 x_1_6 <= 994
	3 x_0_6 + 3 x_1_6 + 1003 x_2_6 <= 995
	4 x_0_6 + 4 x_1_6 + 4 x_2_6 + 1004 x_3_6 <= 996
	5 x_0_6 + 5 x_1_6 + 5 x_2_6 + 5 x_3_6 + 1005 x_4_6 <= 997
	5 x_0_6 + 5 x_1_6 + 5 x_2_6 + 5 x_3_6 + 5 x_4_6 + 1005 x_5_6 <= 998
	4 x_0_6 + 4 x_1_6 + 4 x_2_6 + 4 x_3_6 + 4 x_4_6 + 4 x_5_6 + 1004 x_6_6 <= 999
	3 x_0_6 + 3 x_1_6 + 3 x_2_6 + 3 x_3_6 + 3 x_4_6 + 3 x_5_6 + 3 x_6_6 + 1003 x_7_6 <= 1000
	2 x_0_6 + 2 x_1_6 + 2 x_2_6 + 2 x_3_6 + 2 x_4_6 + 2 x_5_6 + 2 x_6_6 + 2 x_7_6 + 1002 x_8_6 <= 1001
	1 x_0_6 + 1 x_1_6 + 1 x_2_6 + 1 x_3_6 + 1 x_4_6 + 1 x_5_6 + 1 x_6_6 + 1 x_7_6 + 1 x_8_6 + 1001 x_9_6 <= 1002
	
Binary
	x_0_1
	x_0_2
	x_0_3
	x_0_4
	x_0_5
	x_0_6
	x_0_7
	x_1_1
	x_1_2
	x_1_3
	x_1_4
	x_1_5
	x_1_6
	x_1_7
	x_2_1
	x_2_2
	x_2_3
	x_2_4
	x_2_5
	x_2_6
	x_2_7
	x_3_1
	x_3_2
	x_3_3
	x_3_4
	x_3_5
	x_3_6
	x_3_7
	x_4_1
	x_4_2
	x_4_3
	x_4_4
	x_4_5
	x_4_6
	x_4_7
	x_5_1
	x_5_2
	x_5_3
	x_5_4
	x_5_5
	x_5_6
	x_5_7
	x_6_1
	x_6_2
	x_6_3
	x_6_4
	x_6_5
	x_6_6
	x_6_7
	x_7_1
	x_7_2
	x_7_3
	x_7_4
	x_7_5
	x_7_6
	x_7_7
	x_8_1
	x_8_2
	x_8_3
	x_8_4
	x_8_5
	x_8_6
	x_8_7
	x_9_1
	x_9_2
	x_9_3
	x_9_4
	x_9_5
	x_9_6
	x_9_7
	
End